certificates/rado_a7_c12_N15.cnf
c Rad2 upper bound instance: x1 + 7*x2 - x3 = 12, interval [1,15]
p cnf 15 58
1 2 3 0
-1 -2 -3 0
1 3 10 0
-1 -3 -10 0
2 4 0
-2 -4 0
2 3 11 0
-2 -3 -11 0
2 3 5 0
-2 -3 -5 0
3 12 0
-3 -12 0
2 4 6 0
-2 -4 -6 0
3 4 13 0
-3 -4 -13 0
2 5 7 0
-2 -5 -7 0
3 5 14 0
-3 -5 -14 0
1 6 0
-1 -6 0
2 6 8 0
-2 -6 -8 0
3 6 15 0
-3 -6 -15 0
1 2 7 0
-1 -2 -7 0
2 7 9 0
-2 -7 -9 0
1 3 8 0
-1 -3 -8 0
2 8 10 0
-2 -8 -10 0
1 4 9 0
-1 -4 -9 0
2 9 11 0
-2 -9 -11 0
1 5 10 0
-1 -5 -10 0
2 10 12 0
-2 -10 -12 0
1 6 11 0
-1 -6 -11 0
2 11 13 0
-2 -11 -13 0
1 7 12 0
-1 -7 -12 0
2 12 14 0
-2 -12 -14 0
1 8 13 0
-1 -8 -13 0
2 13 15 0
-2 -13 -15 0
1 9 14 0
-1 -9 -14 0
1 10 15 0
-1 -10 -15 0
