certificates/rado_a7_c12_N15.drat
-13 -15 0
d -13 -2 -15 0
8 10 13 0
4 -8 13 0
10 -14 13 0
1 -15 0
-15 0
13 0
10 0
-3 0
12 0
6 0
-2 0
-1 0
4 0
0
